c Sudoku solution
p cnf 729 0
147 0
217 0
235 0
242 0
289 0
321 0
332 0
364 0
443 0
488 0
497 0
545 0
571 0
622 0
641 0
654 0
695 0
724 0
756 0
346 0
773 0
799 0
748 0
811 0
737 0
431 0
527 0
667 0
865 0
919 0
712 0
925 0
761 0
785 0
944 0
849 0
415 0
474 0
679 0
359 0
155 0
251 0
558 0
452 0
962 0
294 0
375 0
387 0
884 0
991 0
986 0
181 0
582 0
683 0
596 0
569 0
466 0
429 0
139 0
114 0
513 0
534 0
318 0
393 0
616 0
638 0
828 0
836 0
933 0
853 0
957 0
877 0
892 0
978 0
172 0
276 0
198 0
126 0
223 0
163 0
268 0
